NAME: instance_3379
TYPE: TSP
DIMENSION: 20
EDGE_WEIGHT_TYPE: EUC_2D
NODE_COORD_SECTION
0 26.53 58.29
1 47.34 8.81
2 6.83 78.12
3 20.17 7.45
4 97.92 62.39
5 78.70 87.06
6 43.94 16.40
7 90.66 2.06
8 49.10 13.46
9 96.71 99.65
10 80.84 78.60
11 74.54 6.00
12 74.88 54.41
13 16.85 44.40
14 58.28 67.80
15 74.95 16.26
16 46.77 4.92
17 29.30 41.28
18 12.43 15.03
19 48.93 39.85
EOF
